节点0：ID=1015
Smax=43.1651 Smin=36.0096
节点1：ID=677
Smax=43.4993 Smin=36.4837
节点2：ID=541
Smax=45.6213 Smin=39.9463
节点3：ID=1789
Smax=44.3683 Smin=37.712
节点4：ID=1742
Smax=43.9687 Smin=36.9767
节点5：ID=2273
Smax=43.8804 Smin=36.6625
节点6：ID=4093
Smax=44.4621 Smin=37.5723
节点7：ID=4070
Smax=44.6155 Smin=37.8011
节点8：ID=4534
Smax=45.485 Smin=39.2288
节点9：ID=7059
Smax=44.4096 Smin=37.375
节点10：ID=10106
Smax=44.2004 Smin=36.9531
节点11：ID=13571
Smax=44.5512 Smin=37.464
节点12：ID=15580
Smax=44.6692 Smin=37.5882
节点13：ID=17105
Smax=45.0323 Smin=38.1227
节点14：ID=19093
Smax=44.7175 Smin=37.5274
节点15：ID=23527
Smax=45.2484 Smin=38.2437
节点16：ID=27120
Smax=44.9235 Smin=37.5375
节点17：ID=32125
Smax=45.7804 Smin=38.8183
节点18：ID=35757
Smax=46.9413 Smin=40.5876
节点19：ID=38529
Smax=47.9937 Smin=42.249
节点20：ID=42795
Smax=47.5643 Smin=41.4139
节点21：ID=46322
Smax=46.9618 Smin=40.2635
